! PBE0 D3BJ def2-SVP tightOPT freq
%output 
xyzfile=True 
end 
%scf 
maxiter 250 
end
%output
Print[P_Hirshfeld] = 1
end
% maxcore
4000
%pal nprocs 4
end
*xyz 2 1
Pd  -2.05000000  12.12000000  11.55000000 
C    2.06000000  11.60000000  12.45000000 
C    3.12000000  12.46000000  12.79000000 
C    2.25000000  10.21000000  12.36000000 
C    1.17000000   9.41000000  12.03000000 
C   -0.06000000   9.99000000  11.80000000 
N   -0.24000000  11.31000000  11.89000000 
C    0.78000000  12.10000000  12.20000000 
H    3.22000000   9.78000000  12.54000000 
H    1.29000000   8.34000000  11.95000000 
H   -0.93000000   9.39000000  11.53000000 
H    0.59000000  13.17000000  12.27000000 
H    3.65600000  12.05500000  13.65900000 
H    3.81000000  12.54400000  11.94000000 
H    2.72100000  13.45300000  13.03700000 
C   -2.45000000  12.92000000  15.70000000 
C   -2.13000000  14.00000000  16.53000000 
C   -3.06000000  11.76000000  16.20000000 
C   -3.35000000  10.72000000  15.34000000 
C   -3.05000000  10.86000000  13.99000000 
N   -2.48000000  11.96000000  13.50000000 
C   -2.18000000  12.97000000  14.33000000 
H   -3.28000000  11.68000000  17.26000000 
H   -3.81000000   9.82000000  15.69000000 
H   -3.27000000  10.06000000  13.28000000 
H   -1.72000000  13.85000000  13.89000000 
H   -1.14400000  13.83300000  16.98400000 
H   -2.10800000  14.92400000  15.93700000 
H   -2.88600000  14.09100000  17.32100000 
C   -0.69000000  13.60000000   7.82000000 
C   -0.06000000  14.78000000   7.39000000 
C   -1.02000000  12.58000000   6.91000000 
C   -1.64000000  11.44000000   7.39000000 
C   -1.92000000  11.33000000   8.75000000 
N   -1.61000000  12.30000000   9.61000000 
C   -1.01000000  13.41000000   9.16000000 
H   -0.79000000  12.69000000   5.87000000 
H   -1.91000000  10.63000000   6.72000000 
H   -2.41000000  10.45000000   9.16000000 
H   -0.78000000  14.17000000   9.90000000 
H    0.98000000  14.78900000   7.74200000 
H   -0.07500000  14.82400000   6.29300000 
H   -0.59200000  15.64900000   7.79900000 
C   -5.19000000  14.92000000  11.05000000 
C   -5.29000000  16.32000000  11.10000000 
C   -6.31000000  14.11000000  10.75000000 
C   -6.15000000  12.74000000  10.71000000 
C   -4.90000000  12.19000000  10.95000000 
N   -3.84000000  12.95000000  11.22000000 
C   -3.97000000  14.27000000  11.27000000 
H   -7.27000000  14.57000000  10.57000000 
H   -6.99000000  12.10000000  10.49000000 
H   -4.75000000  11.11000000  10.92000000 
H   -3.08000000  14.86000000  11.50000000 
H   -4.28600000  16.76100000  11.03900000 
H   -5.89700000  16.67400000  10.25600000 
H   -5.76500000  16.62000000  12.04400000 
*
